NAME : U-F-n72-k4.241973.tour
COMMENT : Cost = 0_241973
COMMENT : Found by LKH [Keld Helsgaun] Wed Sep 13 14:31:02 2017
TYPE : TOUR
DIMENSION : 75
TOUR_SECTION
1
24
27
25
26
50
52
71
51
48
49
53
46
54
44
47
45
43
28
29
23
22
31
30
21
74
10
8
5
9
4
6
11
7
72
13
17
18
14
3
16
2
34
75
36
19
12
20
15
37
73
55
56
42
57
58
40
69
41
39
38
70
68
67
66
65
63
64
60
59
62
61
35
33
32
-1
EOF
